formal/counter/model/design_smt2.smt2
; SMT-LIBv2 description generated by Yosys 0.65+59 (git sha1 94ec78b6e, g++ 11.4.0-1ubuntu1~22.04.3 -fPIC -O3)
; yosys-smt2-module $paramod/counter/W=s32'00000000000000000000000000000100
(declare-sort |$paramod/counter/W=s32'00000000000000000000000000000100_s| 0)
(declare-fun |$paramod/counter/W=s32'00000000000000000000000000000100_is| (|$paramod/counter/W=s32'00000000000000000000000000000100_s|) Bool)
(declare-fun |$paramod/counter/W=s32'00000000000000000000000000000100#0| (|$paramod/counter/W=s32'00000000000000000000000000000100_s|) Bool) ; \clk
; yosys-smt2-input clk 1
; yosys-smt2-wire clk 1
; yosys-smt2-clock clk posedge
; yosys-smt2-witness {"offset": 0, "path": ["\\clk"], "smtname": "clk", "smtoffset": 0, "type": "posedge", "width": 1}
; yosys-smt2-witness {"offset": 0, "path": ["\\clk"], "smtname": "clk", "smtoffset": 0, "type": "input", "width": 1}
(define-fun |$paramod/counter/W=s32'00000000000000000000000000000100_n clk| ((state |$paramod/counter/W=s32'00000000000000000000000000000100_s|)) Bool (|$paramod/counter/W=s32'00000000000000000000000000000100#0| state))
(declare-fun |$paramod/counter/W=s32'00000000000000000000000000000100#1| (|$paramod/counter/W=s32'00000000000000000000000000000100_s|) Bool) ; \en
; yosys-smt2-input en 1
; yosys-smt2-wire en 1
; yosys-smt2-witness {"offset": 0, "path": ["\\en"], "smtname": "en", "smtoffset": 0, "type": "input", "width": 1}
(define-fun |$paramod/counter/W=s32'00000000000000000000000000000100_n en| ((state |$paramod/counter/W=s32'00000000000000000000000000000100_s|)) Bool (|$paramod/counter/W=s32'00000000000000000000000000000100#1| state))
; yosys-smt2-anyinit $paramod/counter/W=s32'00000000000000000000000000000100#2 4 counter.sv:11.5-17.8
; yosys-smt2-witness {"offset": 0, "path": ["\\q"], "smtname": 2, "smtoffset": 0, "type": "init", "width": 4}
(declare-fun |$paramod/counter/W=s32'00000000000000000000000000000100#2| (|$paramod/counter/W=s32'00000000000000000000000000000100_s|) (_ BitVec 4)) ; \q
; yosys-smt2-output q 4
; yosys-smt2-register q 4
; yosys-smt2-wire q 4
(define-fun |$paramod/counter/W=s32'00000000000000000000000000000100_n q| ((state |$paramod/counter/W=s32'00000000000000000000000000000100_s|)) (_ BitVec 4) (|$paramod/counter/W=s32'00000000000000000000000000000100#2| state))
(declare-fun |$paramod/counter/W=s32'00000000000000000000000000000100#3| (|$paramod/counter/W=s32'00000000000000000000000000000100_s|) Bool) ; \rst_n
; yosys-smt2-input rst_n 1
; yosys-smt2-wire rst_n 1
; yosys-smt2-witness {"offset": 0, "path": ["\\rst_n"], "smtname": "rst_n", "smtoffset": 0, "type": "input", "width": 1}
(define-fun |$paramod/counter/W=s32'00000000000000000000000000000100_n rst_n| ((state |$paramod/counter/W=s32'00000000000000000000000000000100_s|)) Bool (|$paramod/counter/W=s32'00000000000000000000000000000100#3| state))
(define-fun |$paramod/counter/W=s32'00000000000000000000000000000100#4| ((state |$paramod/counter/W=s32'00000000000000000000000000000100_s|)) (_ BitVec 1) (bvnot (ite (|$paramod/counter/W=s32'00000000000000000000000000000100#0| state) #b1 #b0))) ; $auto$rtlil.cc:3255:Not$82
; yosys-smt2-assume 0 $auto$formalff.cc:987:execute$83
(define-fun |$paramod/counter/W=s32'00000000000000000000000000000100_u 0| ((state |$paramod/counter/W=s32'00000000000000000000000000000100_s|)) Bool (or (= ((_ extract 0 0) (|$paramod/counter/W=s32'00000000000000000000000000000100#4| state)) #b1) (not true))) ; $auto$formalff.cc:987:execute$83
(define-fun |$paramod/counter/W=s32'00000000000000000000000000000100#5| ((state |$paramod/counter/W=s32'00000000000000000000000000000100_s|)) (_ BitVec 4) (bvadd (|$paramod/counter/W=s32'00000000000000000000000000000100#2| state) #b0001)) ; $add$counter.sv:15$24_Y
(define-fun |$paramod/counter/W=s32'00000000000000000000000000000100#6| ((state |$paramod/counter/W=s32'00000000000000000000000000000100_s|)) (_ BitVec 4) (ite (|$paramod/counter/W=s32'00000000000000000000000000000100#1| state) (|$paramod/counter/W=s32'00000000000000000000000000000100#5| state) (|$paramod/counter/W=s32'00000000000000000000000000000100#2| state))) ; $auto$rtlil.cc:3390:Mux$74
(define-fun |$paramod/counter/W=s32'00000000000000000000000000000100#7| ((state |$paramod/counter/W=s32'00000000000000000000000000000100_s|)) (_ BitVec 4) (ite (|$paramod/counter/W=s32'00000000000000000000000000000100#3| state) (|$paramod/counter/W=s32'00000000000000000000000000000100#6| state) #b0000)) ; $auto$rtlil.cc:3390:Mux$76
(define-fun |$paramod/counter/W=s32'00000000000000000000000000000100_a| ((state |$paramod/counter/W=s32'00000000000000000000000000000100_s|)) Bool true)
(define-fun |$paramod/counter/W=s32'00000000000000000000000000000100_u| ((state |$paramod/counter/W=s32'00000000000000000000000000000100_s|)) Bool 
  (|$paramod/counter/W=s32'00000000000000000000000000000100_u 0| state)
)
(define-fun |$paramod/counter/W=s32'00000000000000000000000000000100_i| ((state |$paramod/counter/W=s32'00000000000000000000000000000100_s|)) Bool true)
(define-fun |$paramod/counter/W=s32'00000000000000000000000000000100_h| ((state |$paramod/counter/W=s32'00000000000000000000000000000100_s|)) Bool true)
(define-fun |$paramod/counter/W=s32'00000000000000000000000000000100_t| ((state |$paramod/counter/W=s32'00000000000000000000000000000100_s|) (next_state |$paramod/counter/W=s32'00000000000000000000000000000100_s|)) Bool 
  (= (|$paramod/counter/W=s32'00000000000000000000000000000100#7| state) (|$paramod/counter/W=s32'00000000000000000000000000000100#2| next_state)) ; $auto$ff.cc:337:slice$57 \q
) ; end of module $paramod/counter/W=s32'00000000000000000000000000000100
; yosys-smt2-module counter_formal
(declare-sort |counter_formal_s| 0)
(declare-fun |counter_formal_is| (|counter_formal_s|) Bool)
; yosys-smt2-witness {"offset": 0, "path": ["$past$counter_formal.sv:22$2$0"], "smtname": 0, "smtoffset": 0, "type": "reg", "width": 1}
(declare-fun |counter_formal#0| (|counter_formal_s|) (_ BitVec 1)) ; $past$counter_formal.sv:22$2$0
; yosys-smt2-register $past$counter_formal.sv:22$2$0 1
(define-fun |counter_formal_n $past$counter_formal.sv:22$2$0| ((state |counter_formal_s|)) Bool (= ((_ extract 0 0) (|counter_formal#0| state)) #b1))
; yosys-smt2-witness {"offset": 0, "path": ["$past$counter_formal.sv:24$3$0"], "smtname": 1, "smtoffset": 0, "type": "reg", "width": 1}
(declare-fun |counter_formal#1| (|counter_formal_s|) (_ BitVec 1)) ; $past$counter_formal.sv:24$3$0
; yosys-smt2-register $past$counter_formal.sv:24$3$0 1
(define-fun |counter_formal_n $past$counter_formal.sv:24$3$0| ((state |counter_formal_s|)) Bool (= ((_ extract 0 0) (|counter_formal#1| state)) #b1))
; yosys-smt2-anyinit counter_formal#2 4 counter_formal.sv:19.5-30.8
; yosys-smt2-witness {"offset": 0, "path": ["\\_witness_", "\\anyinit_procdff_55"], "smtname": 2, "smtoffset": 0, "type": "init", "width": 4}
(declare-fun |counter_formal#2| (|counter_formal_s|) (_ BitVec 4)) ; \_witness_.anyinit_procdff_55
; yosys-smt2-register _witness_.anyinit_procdff_55 4
; yosys-smt2-wire _witness_.anyinit_procdff_55 4
(define-fun |counter_formal_n _witness_.anyinit_procdff_55| ((state |counter_formal_s|)) (_ BitVec 4) (|counter_formal#2| state))
; yosys-smt2-anyseq counter_formal#3 1 $auto$setundef.cc:350:execute$79
; yosys-smt2-witness {"offset": 0, "path": ["\\clk"], "smtname": 3, "smtoffset": 0, "type": "seq", "width": 1}
(declare-fun |counter_formal#3| (|counter_formal_s|) (_ BitVec 1)) ; \clk
; yosys-smt2-wire clk 1
(define-fun |counter_formal_n clk| ((state |counter_formal_s|)) Bool (= ((_ extract 0 0) (|counter_formal#3| state)) #b1))
; yosys-smt2-anyseq counter_formal#4 1 counter_formal.sv:9.22-9.24 en
; yosys-smt2-witness {"offset": 0, "path": ["\\en"], "smtname": 4, "smtoffset": 0, "type": "seq", "width": 1}
(declare-fun |counter_formal#4| (|counter_formal_s|) (_ BitVec 1)) ; \en
; yosys-smt2-wire en 1
(define-fun |counter_formal_n en| ((state |counter_formal_s|)) Bool (= ((_ extract 0 0) (|counter_formal#4| state)) #b1))
; yosys-smt2-cell $paramod/counter/W=s32'00000000000000000000000000000100 dut
; yosys-smt2-witness {"path": ["\\dut"], "smtname": "dut", "type": "cell"}
(declare-fun |counter_formal#5| (|counter_formal_s|) (_ BitVec 4)) ; \q
(declare-fun |counter_formal_h dut| (|counter_formal_s|) |$paramod/counter/W=s32'00000000000000000000000000000100_s|)
; yosys-smt2-wire q 4
(define-fun |counter_formal_n q| ((state |counter_formal_s|)) (_ BitVec 4) (|counter_formal#5| state))
; yosys-smt2-anyseq counter_formal#6 1 counter_formal.sv:8.22-8.27 rst_n
; yosys-smt2-witness {"offset": 0, "path": ["\\rst_n"], "smtname": 6, "smtoffset": 0, "type": "seq", "width": 1}
(declare-fun |counter_formal#6| (|counter_formal_s|) (_ BitVec 1)) ; \rst_n
; yosys-smt2-wire rst_n 1
(define-fun |counter_formal_n rst_n| ((state |counter_formal_s|)) Bool (= ((_ extract 0 0) (|counter_formal#6| state)) #b1))
(define-fun |counter_formal#7| ((state |counter_formal_s|)) Bool (not (or  (= ((_ extract 0 0) (|counter_formal#5| state)) #b1) (= ((_ extract 1 1) (|counter_formal#5| state)) #b1) (= ((_ extract 2 2) (|counter_formal#5| state)) #b1) (= ((_ extract 3 3) (|counter_formal#5| state)) #b1)))) ; $eq$counter_formal.sv:23$16_Y
(define-fun |counter_formal#8| ((state |counter_formal_s|)) (_ BitVec 1) (ite (= ((_ extract 0 0) (|counter_formal#0| state)) #b1) #b0 #b1)) ; $procmux$47_Y
(define-fun |counter_formal#9| ((state |counter_formal_s|)) Bool (|counter_formal_is| state)) ; $initstate$1_wire
(define-fun |counter_formal#10| ((state |counter_formal_s|)) (_ BitVec 1) (ite (|counter_formal#9| state) #b0 (|counter_formal#8| state))) ; $assert$counter_formal.sv:23$15_EN
; yosys-smt2-assert 0 _witness_.check_assert_counter_formal_sv_23_15 counter_formal.sv:23.17-23.39
(define-fun |counter_formal_a 0| ((state |counter_formal_s|)) Bool (or (|counter_formal#7| state) (not (= ((_ extract 0 0) (|counter_formal#10| state)) #b1)))) ; _witness_.check_assert_counter_formal_sv_23_15
(define-fun |counter_formal#11| ((state |counter_formal_s|)) (_ BitVec 4) (bvadd (|counter_formal#2| state) #b0001)) ; $add$counter_formal.sv:25$18_Y
(define-fun |counter_formal#12| ((state |counter_formal_s|)) Bool (= (|counter_formal#5| state) (|counter_formal#11| state))) ; $eq$counter_formal.sv:25$19_Y
(define-fun |counter_formal#13| ((state |counter_formal_s|)) (_ BitVec 1) (ite (= ((_ extract 0 0) (|counter_formal#1| state)) #b1) #b1 #b0)) ; $procmux$39_Y
(define-fun |counter_formal#14| ((state |counter_formal_s|)) (_ BitVec 1) (ite (= ((_ extract 0 0) (|counter_formal#0| state)) #b1) (|counter_formal#13| state) #b0)) ; $procmux$42_Y
(define-fun |counter_formal#15| ((state |counter_formal_s|)) (_ BitVec 1) (ite (|counter_formal#9| state) #b0 (|counter_formal#14| state))) ; $assert$counter_formal.sv:25$17_EN
; yosys-smt2-assert 1 _witness_.check_assert_counter_formal_sv_25_17 counter_formal.sv:25.17-25.47
(define-fun |counter_formal_a 1| ((state |counter_formal_s|)) Bool (or (|counter_formal#12| state) (not (= ((_ extract 0 0) (|counter_formal#15| state)) #b1)))) ; _witness_.check_assert_counter_formal_sv_25_17
(define-fun |counter_formal#16| ((state |counter_formal_s|)) Bool (= (|counter_formal#5| state) (|counter_formal#2| state))) ; $eq$counter_formal.sv:27$21_Y
(define-fun |counter_formal#17| ((state |counter_formal_s|)) (_ BitVec 1) (ite (= ((_ extract 0 0) (|counter_formal#1| state)) #b1) #b0 #b1)) ; $procmux$31_Y
(define-fun |counter_formal#18| ((state |counter_formal_s|)) (_ BitVec 1) (ite (= ((_ extract 0 0) (|counter_formal#0| state)) #b1) (|counter_formal#17| state) #b0)) ; $procmux$34_Y
(define-fun |counter_formal#19| ((state |counter_formal_s|)) (_ BitVec 1) (ite (|counter_formal#9| state) #b0 (|counter_formal#18| state))) ; $assert$counter_formal.sv:27$20_EN
; yosys-smt2-assert 2 _witness_.check_assert_counter_formal_sv_27_20 counter_formal.sv:27.17-27.38
(define-fun |counter_formal_a 2| ((state |counter_formal_s|)) Bool (or (|counter_formal#16| state) (not (= ((_ extract 0 0) (|counter_formal#19| state)) #b1)))) ; _witness_.check_assert_counter_formal_sv_27_20
(define-fun |counter_formal_a| ((state |counter_formal_s|)) Bool (and
  (|counter_formal_a 0| state)
  (|counter_formal_a 1| state)
  (|counter_formal_a 2| state)
  (|$paramod/counter/W=s32'00000000000000000000000000000100_a| (|counter_formal_h dut| state))
))
(define-fun |counter_formal_u| ((state |counter_formal_s|)) Bool 
  (|$paramod/counter/W=s32'00000000000000000000000000000100_u| (|counter_formal_h dut| state))
)
(define-fun |counter_formal_i| ((state |counter_formal_s|)) Bool (and
  (= (= ((_ extract 0 0) (|counter_formal#0| state)) #b1) false) ; $past$counter_formal.sv:22$2$0
  (= (= ((_ extract 0 0) (|counter_formal#1| state)) #b1) false) ; $past$counter_formal.sv:24$3$0
  (|$paramod/counter/W=s32'00000000000000000000000000000100_i| (|counter_formal_h dut| state))
))
(define-fun |counter_formal_h| ((state |counter_formal_s|)) Bool (and
  (= (|counter_formal_is| state) (|$paramod/counter/W=s32'00000000000000000000000000000100_is| (|counter_formal_h dut| state)))
  (= (= ((_ extract 0 0) (|counter_formal#3| state)) #b1) (|$paramod/counter/W=s32'00000000000000000000000000000100_n clk| (|counter_formal_h dut| state))) ; $paramod/counter/W=s32'00000000000000000000000000000100.clk
  (= (= ((_ extract 0 0) (|counter_formal#4| state)) #b1) (|$paramod/counter/W=s32'00000000000000000000000000000100_n en| (|counter_formal_h dut| state))) ; $paramod/counter/W=s32'00000000000000000000000000000100.en
  (= (|counter_formal#5| state) (|$paramod/counter/W=s32'00000000000000000000000000000100_n q| (|counter_formal_h dut| state))) ; $paramod/counter/W=s32'00000000000000000000000000000100.q
  (= (= ((_ extract 0 0) (|counter_formal#6| state)) #b1) (|$paramod/counter/W=s32'00000000000000000000000000000100_n rst_n| (|counter_formal_h dut| state))) ; $paramod/counter/W=s32'00000000000000000000000000000100.rst_n
  (|$paramod/counter/W=s32'00000000000000000000000000000100_h| (|counter_formal_h dut| state))
))
(define-fun |counter_formal_t| ((state |counter_formal_s|) (next_state |counter_formal_s|)) Bool (and
  (= (|counter_formal#5| state) (|counter_formal#2| next_state)) ; $procdff$55 \_witness_.anyinit_procdff_55
  (= (|counter_formal#4| state) (|counter_formal#1| next_state)) ; $procdff$53 $past$counter_formal.sv:24$3$0
  (= (|counter_formal#6| state) (|counter_formal#0| next_state)) ; $procdff$52 $past$counter_formal.sv:22$2$0
  (|$paramod/counter/W=s32'00000000000000000000000000000100_t| (|counter_formal_h dut| state) (|counter_formal_h dut| next_state))
)) ; end of module counter_formal
; yosys-smt2-topmod counter_formal
; end of yosys output
